benchmark/results/graph__15-1000-0.10-02_18/graph__15-1000-0.10-02_18_Quinton_Benders_primal_sub.lp
\ This file has been generated by DOcplex
\ ENCODING=ISO-8859-1
\Problem name: Quinton Benders_primal_sub

Maximize
 obj: tau
Subject To
 c1: tau <= 0.001470588235
 c2: y_a0_proc_0 - tau = 0
 c3: y_a0_proc_0 <= 1
 c4: tau <= 0.001141552511
 c5: y_a1_proc_0 + y_a1_proc_1 - tau = 0
 c6: y_a1_proc_0 <= 1
 c7: y_a1_proc_1 <= 0
 c8: tau <= 0.001422475107
 c9: y_a2_proc_0 + y_a2_proc_1 - tau = 0
 c10: y_a2_proc_0 <= 1
 c11: y_a2_proc_1 <= 0
 c12: tau <= 0.000838926174
 c13: y_a3_proc_0 - tau = 0
 c14: y_a3_proc_0 <= 1
 c15: tau <= 0.000928505107
 c16: y_a4_proc_0 + y_a4_proc_1 - tau = 0
 c17: y_a4_proc_0 <= 1
 c18: y_a4_proc_1 <= 0
 c19: tau <= 0.001310615990
 c20: y_a5_proc_0 - tau = 0
 c21: y_a5_proc_0 <= 1
 c22: tau <= 0.000919117647
 c23: y_a6_proc_0 + y_a6_proc_1 - tau = 0
 c24: y_a6_proc_0 <= 0
 c25: y_a6_proc_1 <= 1
 c26: tau <= 0.001126126126
 c27: y_a7_proc_0 + y_a7_proc_1 - tau = 0
 c28: y_a7_proc_0 <= 1
 c29: y_a7_proc_1 <= 0
 c30: tau <= 0.000771604938
 c31: y_a8_proc_0 + y_a8_proc_1 - tau = 0
 c32: y_a8_proc_0 <= 0
 c33: y_a8_proc_1 <= 1
 c34: tau <= 0.001522070015
 c35: y_a9_proc_0 + y_a9_proc_1 - tau = 0
 c36: y_a9_proc_0 <= 0
 c37: y_a9_proc_1 <= 1
 c38: tau <= 0.001248439451
 c39: y_a10_proc_1 - tau = 0
 c40: y_a10_proc_1 <= 1
 c41: tau <= 0.001030927835
 c42: y_a11_proc_0 + y_a11_proc_1 - tau = 0
 c43: y_a11_proc_0 <= 1
 c44: y_a11_proc_1 <= 0
 c45: tau <= 0.000789889415
 c46: y_a12_proc_0 + y_a12_proc_1 - tau = 0
 c47: y_a12_proc_0 <= 1
 c48: y_a12_proc_1 <= 0
 c49: tau <= 0.001358695652
 c50: y_a13_proc_0 + y_a13_proc_1 - tau = 0
 c51: y_a13_proc_0 <= 0
 c52: y_a13_proc_1 <= 1
 c53: tau <= 0.001223990208
 c54: y_a14_proc_0 + y_a14_proc_1 - tau = 0
 c55: y_a14_proc_0 <= 1
 c56: y_a14_proc_1 <= 0
 c57: u_a1 - u_a0 - 680 y_a0_proc_0 >= 0
 c58: u_a1 - u_a2 - 703 y_a2_proc_0 - 666 y_a2_proc_1 >= 0
 c59: u_a0 - u_a3 - 1192 y_a3_proc_0 >= 0
 c60: u_a4 - u_a1 - 876 y_a1_proc_0 - 1200 y_a1_proc_1 >= 0
 c61: u_a5 - u_a4 - 1077 y_a4_proc_0 - 646 y_a4_proc_1 >= 0
 c62: u_a1 - u_a6 - 1010 y_a6_proc_0 - 1088 y_a6_proc_1 >= 0
 c63: u_a7 - u_a6 - 1010 y_a6_proc_0 - 1088 y_a6_proc_1 >= -1
 c64: u_a8 - u_a6 - 1010 y_a6_proc_0 - 1088 y_a6_proc_1 >= 0
 c65: u_a9 - u_a8 - 870 y_a8_proc_0 - 1296 y_a8_proc_1 >= -1
 c66: u_a9 - u_a10 - 801 y_a10_proc_1 >= -1
 c67: u_a2 - u_a11 - 970 y_a11_proc_0 - 906 y_a11_proc_1 >= 0
 c68: u_a8 - u_a12 - 1266 y_a12_proc_0 - 928 y_a12_proc_1 >= 0
 c69: u_a6 - u_a13 - 1083 y_a13_proc_0 - 736 y_a13_proc_1 >= 0
 c70: u_a11 - u_a14 - 817 y_a14_proc_0 - 996 y_a14_proc_1 >= 0
 c71: u_a0 - u_a9 - 1013 y_a9_proc_0 - 657 y_a9_proc_1 >= -1
 c72: u_a11 - u_a5 - 763 y_a5_proc_0 >= -1
 c73: u_a11 - u_a8 - 870 y_a8_proc_0 - 1296 y_a8_proc_1 >= -1
 c74: u_a9 - u_a14 - 817 y_a14_proc_0 - 996 y_a14_proc_1 >= 0
 c75: u_a3 - u_a7 - 888 y_a7_proc_0 - 773 y_a7_proc_1 >= 0
 c76: u_a10 - u_a8 - 870 y_a8_proc_0 - 1296 y_a8_proc_1 >= 0
 c77: u_a0 - u_a7 - 888 y_a7_proc_0 - 773 y_a7_proc_1 >= 0
 c78: u_a14 - u_a9 - 1013 y_a9_proc_0 - 657 y_a9_proc_1 >= -1
 c79: - 1083 y_a13_proc_0 - 736 y_a13_proc_1 >= -1
 c80: u_a12 - u_a14 - 817 y_a14_proc_0 - 996 y_a14_proc_1 >= 0
 c81: u_a3 - u_a11 - 970 y_a11_proc_0 - 906 y_a11_proc_1 >= -1
 c82: u_a13 - u_a5 - 763 y_a5_proc_0 >= -1
 c83: u_a14 - u_a11 - 970 y_a11_proc_0 - 906 y_a11_proc_1 >= -1
 c84: u_a1 - u_a0 - 680 y_a0_proc_0 >= 0
 c85: u_a0 - u_a1 - 876 y_a1_proc_0 >= -1
 c86: u_a2 - u_a0 - 680 y_a0_proc_0 >= -1
 c87: u_a0 - u_a2 - 703 y_a2_proc_0 >= 0
 c88: u_a3 - u_a0 - 680 y_a0_proc_0 >= -2
 c89: u_a0 - u_a3 - 1192 y_a3_proc_0 >= 1
 c90: u_a4 - u_a0 - 680 y_a0_proc_0 >= 0
 c91: u_a0 - u_a4 - 1077 y_a4_proc_0 >= -1
 c92: u_a5 - u_a0 - 680 y_a0_proc_0 >= 0
 c93: u_a0 - u_a5 - 763 y_a5_proc_0 >= -1
 c94: u_a6 - u_a0 - 680 y_a0_proc_0 >= -2593
 c95: u_a0 - u_a6 - 1010 y_a6_proc_0 >= 0
 c96: u_a7 - u_a0 - 680 y_a0_proc_0 >= -2
 c97: u_a0 - u_a7 - 888 y_a7_proc_0 >= 1
 c98: u_a8 - u_a0 - 680 y_a0_proc_0 >= -2593
 c99: u_a0 - u_a8 - 870 y_a8_proc_0 >= 0
 c100: u_a9 - u_a0 - 680 y_a0_proc_0 >= -2592
 c101: u_a0 - u_a9 - 1013 y_a9_proc_0 >= -1
 c102: u_a11 - u_a0 - 680 y_a0_proc_0 >= -1
 c103: u_a0 - u_a11 - 970 y_a11_proc_0 >= 0
 c104: u_a12 - u_a0 - 680 y_a0_proc_0 >= -1
 c105: u_a0 - u_a12 - 1266 y_a12_proc_0 >= 0
 c106: u_a13 - u_a0 - 680 y_a0_proc_0 >= -2593
 c107: u_a0 - u_a13 - 1083 y_a13_proc_0 >= 0
 c108: u_a14 - u_a0 - 680 y_a0_proc_0 >= -1
 c109: u_a0 - u_a14 - 817 y_a14_proc_0 >= 0
 c110: u_a2 - u_a1 - 876 y_a1_proc_0 >= -1
 c111: u_a2 - u_a1 - 1200 y_a1_proc_1 >= -2593
 c112: u_a1 - u_a2 - 703 y_a2_proc_0 >= 0
 c113: u_a1 - u_a2 - 666 y_a2_proc_1 >= -2592
 c114: u_a3 - u_a1 - 876 y_a1_proc_0 >= -2
 c115: u_a1 - u_a3 - 1192 y_a3_proc_0 >= 1
 c116: u_a4 - u_a1 - 876 y_a1_proc_0 >= 0
 c117: u_a4 - u_a1 - 1200 y_a1_proc_1 >= -2592
 c118: u_a1 - u_a4 - 1077 y_a4_proc_0 >= -1
 c119: u_a1 - u_a4 - 646 y_a4_proc_1 >= -2593
 c120: u_a5 - u_a1 - 876 y_a1_proc_0 >= 0
 c121: u_a1 - u_a5 - 763 y_a5_proc_0 >= -1
 c122: u_a6 - u_a1 - 876 y_a1_proc_0 >= -2593
 c123: u_a6 - u_a1 - 1200 y_a1_proc_1 >= -2593
 c124: u_a1 - u_a6 - 1010 y_a6_proc_0 >= 0
 c125: u_a1 - u_a6 - 1088 y_a6_proc_1 >= 0
 c126: u_a7 - u_a1 - 876 y_a1_proc_0 >= -2
 c127: u_a7 - u_a1 - 1200 y_a1_proc_1 >= -2594
 c128: u_a1 - u_a7 - 888 y_a7_proc_0 >= 1
 c129: u_a1 - u_a7 - 773 y_a7_proc_1 >= -2591
 c130: u_a8 - u_a1 - 876 y_a1_proc_0 >= -676
 c131: u_a8 - u_a1 - 1200 y_a1_proc_1 >= -676
 c132: u_a1 - u_a8 - 870 y_a8_proc_0 >= -1917
 c133: u_a1 - u_a8 - 1296 y_a8_proc_1 >= -1917
 c134: u_a9 - u_a1 - 876 y_a1_proc_0 >= -2593
 c135: u_a9 - u_a1 - 1200 y_a1_proc_1 >= -2593
 c136: u_a1 - u_a9 - 1013 y_a9_proc_0 >= 0
 c137: u_a1 - u_a9 - 657 y_a9_proc_1 >= 0
 c138: u_a10 - u_a1 - 1200 y_a1_proc_1 >= -2592
 c139: u_a1 - u_a10 - 801 y_a10_proc_1 >= -1
 c140: u_a11 - u_a1 - 876 y_a1_proc_0 >= -1
 c141: u_a11 - u_a1 - 1200 y_a1_proc_1 >= -2593
 c142: u_a1 - u_a11 - 970 y_a11_proc_0 >= 0
 c143: u_a1 - u_a11 - 906 y_a11_proc_1 >= -2592
 c144: u_a12 - u_a1 - 876 y_a1_proc_0 >= -2
 c145: u_a12 - u_a1 - 1200 y_a1_proc_1 >= -2594
 c146: u_a1 - u_a12 - 1266 y_a12_proc_0 >= 1
 c147: u_a1 - u_a12 - 928 y_a12_proc_1 >= -2591
 c148: u_a13 - u_a1 - 876 y_a1_proc_0 >= -2593
 c149: u_a13 - u_a1 - 1200 y_a1_proc_1 >= -2593
 c150: u_a1 - u_a13 - 1083 y_a13_proc_0 >= 0
 c151: u_a1 - u_a13 - 736 y_a13_proc_1 >= 0
 c152: u_a14 - u_a1 - 876 y_a1_proc_0 >= -2
 c153: u_a14 - u_a1 - 1200 y_a1_proc_1 >= -2594
 c154: u_a1 - u_a14 - 817 y_a14_proc_0 >= 1
 c155: u_a1 - u_a14 - 996 y_a14_proc_1 >= -2591
 c156: u_a3 - u_a2 - 703 y_a2_proc_0 >= -1
 c157: u_a2 - u_a3 - 1192 y_a3_proc_0 >= 0
 c158: u_a4 - u_a2 - 703 y_a2_proc_0 >= 0
 c159: u_a4 - u_a2 - 666 y_a2_proc_1 >= -2592
 c160: u_a2 - u_a4 - 1077 y_a4_proc_0 >= -1
 c161: u_a2 - u_a4 - 646 y_a4_proc_1 >= -2593
 c162: u_a5 - u_a2 - 703 y_a2_proc_0 >= 0
 c163: u_a2 - u_a5 - 763 y_a5_proc_0 >= -1
 c164: u_a6 - u_a2 - 703 y_a2_proc_0 >= -2592
 c165: u_a6 - u_a2 - 666 y_a2_proc_1 >= -2592
 c166: u_a2 - u_a6 - 1010 y_a6_proc_0 >= -1
 c167: u_a2 - u_a6 - 1088 y_a6_proc_1 >= -1
 c168: u_a7 - u_a2 - 703 y_a2_proc_0 >= -1
 c169: u_a7 - u_a2 - 666 y_a2_proc_1 >= -2593
 c170: u_a2 - u_a7 - 888 y_a7_proc_0 >= 0
 c171: u_a2 - u_a7 - 773 y_a7_proc_1 >= -2592
 c172: u_a8 - u_a2 - 703 y_a2_proc_0 >= -1571
 c173: u_a8 - u_a2 - 666 y_a2_proc_1 >= -1571
 c174: u_a2 - u_a8 - 870 y_a8_proc_0 >= -1022
 c175: u_a2 - u_a8 - 1296 y_a8_proc_1 >= -1022
 c176: u_a9 - u_a2 - 703 y_a2_proc_0 >= -2592
 c177: u_a9 - u_a2 - 666 y_a2_proc_1 >= -2592
 c178: u_a2 - u_a9 - 1013 y_a9_proc_0 >= -1
 c179: u_a2 - u_a9 - 657 y_a9_proc_1 >= -1
 c180: u_a10 - u_a2 - 666 y_a2_proc_1 >= -2591
 c181: u_a2 - u_a10 - 801 y_a10_proc_1 >= -2
 c182: u_a11 - u_a2 - 703 y_a2_proc_0 >= -1
 c183: u_a11 - u_a2 - 666 y_a2_proc_1 >= -2593
 c184: u_a2 - u_a11 - 970 y_a11_proc_0 >= 0
 c185: u_a2 - u_a11 - 906 y_a11_proc_1 >= -2592
 c186: u_a12 - u_a2 - 703 y_a2_proc_0 >= -1
 c187: u_a12 - u_a2 - 666 y_a2_proc_1 >= -2593
 c188: u_a2 - u_a12 - 1266 y_a12_proc_0 >= 0
 c189: u_a2 - u_a12 - 928 y_a12_proc_1 >= -2592
 c190: u_a13 - u_a2 - 703 y_a2_proc_0 >= -2593
 c191: u_a13 - u_a2 - 666 y_a2_proc_1 >= -2593
 c192: u_a2 - u_a13 - 1083 y_a13_proc_0 >= 0
 c193: u_a2 - u_a13 - 736 y_a13_proc_1 >= 0
 c194: u_a14 - u_a2 - 703 y_a2_proc_0 >= -1
 c195: u_a14 - u_a2 - 666 y_a2_proc_1 >= -2593
 c196: u_a2 - u_a14 - 817 y_a14_proc_0 >= 0
 c197: u_a2 - u_a14 - 996 y_a14_proc_1 >= -2592
 c198: u_a4 - u_a3 - 1192 y_a3_proc_0 >= 1
 c199: u_a3 - u_a4 - 1077 y_a4_proc_0 >= -2
 c200: u_a5 - u_a3 - 1192 y_a3_proc_0 >= 1
 c201: u_a3 - u_a5 - 763 y_a5_proc_0 >= -2
 c202: u_a6 - u_a3 - 1192 y_a3_proc_0 >= -2592
 c203: u_a3 - u_a6 - 1010 y_a6_proc_0 >= -1
 c204: u_a7 - u_a3 - 1192 y_a3_proc_0 >= -1
 c205: u_a3 - u_a7 - 888 y_a7_proc_0 >= 0
 c206: u_a8 - u_a3 - 1192 y_a3_proc_0 >= 0
 c207: u_a3 - u_a8 - 870 y_a8_proc_0 >= -2593
 c208: u_a9 - u_a3 - 1192 y_a3_proc_0 >= -2591
 c209: u_a3 - u_a9 - 1013 y_a9_proc_0 >= -2
 c210: u_a11 - u_a3 - 1192 y_a3_proc_0 >= 0
 c211: u_a3 - u_a11 - 970 y_a11_proc_0 >= -1
 c212: u_a12 - u_a3 - 1192 y_a3_proc_0 >= 0
 c213: u_a3 - u_a12 - 1266 y_a12_proc_0 >= -1
 c214: u_a13 - u_a3 - 1192 y_a3_proc_0 >= -2592
 c215: u_a3 - u_a13 - 1083 y_a13_proc_0 >= -1
 c216: u_a14 - u_a3 - 1192 y_a3_proc_0 >= 0
 c217: u_a3 - u_a14 - 817 y_a14_proc_0 >= -1
 c218: u_a5 - u_a4 - 1077 y_a4_proc_0 >= 0
 c219: u_a4 - u_a5 - 763 y_a5_proc_0 >= -1
 c220: u_a6 - u_a4 - 1077 y_a4_proc_0 >= -2593
 c221: u_a6 - u_a4 - 646 y_a4_proc_1 >= -2593
 c222: u_a4 - u_a6 - 1010 y_a6_proc_0 >= 0
 c223: u_a4 - u_a6 - 1088 y_a6_proc_1 >= 0
 c224: u_a7 - u_a4 - 1077 y_a4_proc_0 >= -2
 c225: u_a7 - u_a4 - 646 y_a4_proc_1 >= -2594
 c226: u_a4 - u_a7 - 888 y_a7_proc_0 >= 1
 c227: u_a4 - u_a7 - 773 y_a7_proc_1 >= -2591
 c228: u_a8 - u_a4 - 1077 y_a4_proc_0 >= -1297
 c229: u_a8 - u_a4 - 646 y_a4_proc_1 >= -1297
 c230: u_a4 - u_a8 - 870 y_a8_proc_0 >= -1296
 c231: u_a4 - u_a8 - 1296 y_a8_proc_1 >= -1296
 c232: u_a9 - u_a4 - 1077 y_a4_proc_0 >= -2593
 c233: u_a9 - u_a4 - 646 y_a4_proc_1 >= -2593
 c234: u_a4 - u_a9 - 1013 y_a9_proc_0 >= 0
 c235: u_a4 - u_a9 - 657 y_a9_proc_1 >= 0
 c236: u_a10 - u_a4 - 646 y_a4_proc_1 >= -2592
 c237: u_a4 - u_a10 - 801 y_a10_proc_1 >= -1
 c238: u_a11 - u_a4 - 1077 y_a4_proc_0 >= -1
 c239: u_a11 - u_a4 - 646 y_a4_proc_1 >= -2593
 c240: u_a4 - u_a11 - 970 y_a11_proc_0 >= 0
 c241: u_a4 - u_a11 - 906 y_a11_proc_1 >= -2592
 c242: u_a12 - u_a4 - 1077 y_a4_proc_0 >= -2
 c243: u_a12 - u_a4 - 646 y_a4_proc_1 >= -2594
 c244: u_a4 - u_a12 - 1266 y_a12_proc_0 >= 1
 c245: u_a4 - u_a12 - 928 y_a12_proc_1 >= -2591
 c246: u_a13 - u_a4 - 1077 y_a4_proc_0 >= -1298
 c247: u_a13 - u_a4 - 646 y_a4_proc_1 >= -1298
 c248: u_a4 - u_a13 - 1083 y_a13_proc_0 >= -1295
 c249: u_a4 - u_a13 - 736 y_a13_proc_1 >= -1295
 c250: u_a14 - u_a4 - 1077 y_a4_proc_0 >= -2
 c251: u_a14 - u_a4 - 646 y_a4_proc_1 >= -2594
 c252: u_a4 - u_a14 - 817 y_a14_proc_0 >= 1
 c253: u_a4 - u_a14 - 996 y_a14_proc_1 >= -2591
 c254: u_a6 - u_a5 - 763 y_a5_proc_0 >= -2593
 c255: u_a5 - u_a6 - 1010 y_a6_proc_0 >= 0
 c256: u_a7 - u_a5 - 763 y_a5_proc_0 >= -2
 c257: u_a5 - u_a7 - 888 y_a7_proc_0 >= 1
 c258: u_a8 - u_a5 - 763 y_a5_proc_0 >= -2593
 c259: u_a5 - u_a8 - 870 y_a8_proc_0 >= 0
 c260: u_a9 - u_a5 - 763 y_a5_proc_0 >= -2593
 c261: u_a5 - u_a9 - 1013 y_a9_proc_0 >= 0
 c262: u_a11 - u_a5 - 763 y_a5_proc_0 >= -1
 c263: u_a5 - u_a11 - 970 y_a11_proc_0 >= 0
 c264: u_a12 - u_a5 - 763 y_a5_proc_0 >= -2
 c265: u_a5 - u_a12 - 1266 y_a12_proc_0 >= 1
 c266: u_a13 - u_a5 - 763 y_a5_proc_0 >= -2593
 c267: u_a5 - u_a13 - 1083 y_a13_proc_0 >= 0
 c268: u_a14 - u_a5 - 763 y_a5_proc_0 >= -2
 c269: u_a5 - u_a14 - 817 y_a14_proc_0 >= 1
 c270: u_a7 - u_a6 - 1010 y_a6_proc_0 >= -2593
 c271: u_a7 - u_a6 - 1088 y_a6_proc_1 >= -2593
 c272: u_a6 - u_a7 - 888 y_a7_proc_0 >= 0
 c273: u_a6 - u_a7 - 773 y_a7_proc_1 >= 0
 c274: u_a8 - u_a6 - 1010 y_a6_proc_0 >= -2592
 c275: u_a8 - u_a6 - 1088 y_a6_proc_1 >= 0
 c276: u_a6 - u_a8 - 870 y_a8_proc_0 >= -2593
 c277: u_a6 - u_a8 - 1296 y_a8_proc_1 >= -1
 c278: u_a9 - u_a6 - 1010 y_a6_proc_0 >= -2592
 c279: u_a9 - u_a6 - 1088 y_a6_proc_1 >= 0
 c280: u_a6 - u_a9 - 1013 y_a9_proc_0 >= -2593
 c281: u_a6 - u_a9 - 657 y_a9_proc_1 >= -1
 c282: u_a10 - u_a6 - 1088 y_a6_proc_1 >= 1
 c283: u_a6 - u_a10 - 801 y_a10_proc_1 >= -2
 c284: u_a11 - u_a6 - 1010 y_a6_proc_0 >= -1
 c285: u_a11 - u_a6 - 1088 y_a6_proc_1 >= -1
 c286: u_a6 - u_a11 - 970 y_a11_proc_0 >= -2592
 c287: u_a6 - u_a11 - 906 y_a11_proc_1 >= -2592
 c288: u_a12 - u_a6 - 1010 y_a6_proc_0 >= -2593
 c289: u_a12 - u_a6 - 1088 y_a6_proc_1 >= -2593
 c290: u_a6 - u_a12 - 1266 y_a12_proc_0 >= 0
 c291: u_a6 - u_a12 - 928 y_a12_proc_1 >= 0
 c292: u_a13 - u_a6 - 1010 y_a6_proc_0 >= -2593
 c293: u_a13 - u_a6 - 1088 y_a6_proc_1 >= -1
 c294: u_a6 - u_a13 - 1083 y_a13_proc_0 >= -2592
 c295: u_a6 - u_a13 - 736 y_a13_proc_1 >= 0
 c296: u_a14 - u_a6 - 1010 y_a6_proc_0 >= -2593
 c297: u_a14 - u_a6 - 1088 y_a6_proc_1 >= -2593
 c298: u_a6 - u_a14 - 817 y_a14_proc_0 >= 0
 c299: u_a6 - u_a14 - 996 y_a14_proc_1 >= 0
 c300: u_a8 - u_a7 - 888 y_a7_proc_0 >= -2591
 c301: u_a8 - u_a7 - 773 y_a7_proc_1 >= -2591
 c302: u_a7 - u_a8 - 870 y_a8_proc_0 >= -2
 c303: u_a7 - u_a8 - 1296 y_a8_proc_1 >= -2
 c304: u_a9 - u_a7 - 888 y_a7_proc_0 >= -2591
 c305: u_a9 - u_a7 - 773 y_a7_proc_1 >= -2591
 c306: u_a7 - u_a9 - 1013 y_a9_proc_0 >= -2
 c307: u_a7 - u_a9 - 657 y_a9_proc_1 >= -2
 c308: u_a10 - u_a7 - 773 y_a7_proc_1 >= 2
 c309: u_a7 - u_a10 - 801 y_a10_proc_1 >= -2595
 c310: u_a11 - u_a7 - 888 y_a7_proc_0 >= 0
 c311: u_a11 - u_a7 - 773 y_a7_proc_1 >= -2592
 c312: u_a7 - u_a11 - 970 y_a11_proc_0 >= -1
 c313: u_a7 - u_a11 - 906 y_a11_proc_1 >= -2593
 c314: u_a12 - u_a7 - 888 y_a7_proc_0 >= 0
 c315: u_a12 - u_a7 - 773 y_a7_proc_1 >= -2592
 c316: u_a7 - u_a12 - 1266 y_a12_proc_0 >= -1
 c317: u_a7 - u_a12 - 928 y_a12_proc_1 >= -2593
 c318: u_a13 - u_a7 - 888 y_a7_proc_0 >= -2592
 c319: u_a13 - u_a7 - 773 y_a7_proc_1 >= -2592
 c320: u_a7 - u_a13 - 1083 y_a13_proc_0 >= -1
 c321: u_a7 - u_a13 - 736 y_a13_proc_1 >= -1
 c322: u_a14 - u_a7 - 888 y_a7_proc_0 >= 0
 c323: u_a14 - u_a7 - 773 y_a7_proc_1 >= -2592
 c324: u_a7 - u_a14 - 817 y_a14_proc_0 >= -1
 c325: u_a7 - u_a14 - 996 y_a14_proc_1 >= -2593
 c326: u_a9 - u_a8 - 870 y_a8_proc_0 >= -2592
 c327: u_a9 - u_a8 - 1296 y_a8_proc_1 >= 0
 c328: u_a8 - u_a9 - 1013 y_a9_proc_0 >= -2593
 c329: u_a8 - u_a9 - 657 y_a9_proc_1 >= -1
 c330: u_a10 - u_a8 - 1296 y_a8_proc_1 >= 1
 c331: u_a8 - u_a10 - 801 y_a10_proc_1 >= -2
 c332: u_a11 - u_a8 - 870 y_a8_proc_0 >= -2593
 c333: u_a11 - u_a8 - 1296 y_a8_proc_1 >= -2593
 c334: u_a8 - u_a11 - 970 y_a11_proc_0 >= 0
 c335: u_a8 - u_a11 - 906 y_a11_proc_1 >= 0
 c336: u_a12 - u_a8 - 870 y_a8_proc_0 >= -1
 c337: u_a12 - u_a8 - 1296 y_a8_proc_1 >= -1
 c338: u_a8 - u_a12 - 1266 y_a12_proc_0 >= -2592
 c339: u_a8 - u_a12 - 928 y_a12_proc_1 >= -2592
 c340: u_a13 - u_a8 - 870 y_a8_proc_0 >= -2593
 c341: u_a13 - u_a8 - 1296 y_a8_proc_1 >= -1
 c342: u_a8 - u_a13 - 1083 y_a13_proc_0 >= -2592
 c343: u_a8 - u_a13 - 736 y_a13_proc_1 >= 0
 c344: u_a14 - u_a8 - 870 y_a8_proc_0 >= -2593
 c345: u_a14 - u_a8 - 1296 y_a8_proc_1 >= -2593
 c346: u_a8 - u_a14 - 817 y_a14_proc_0 >= 0
 c347: u_a8 - u_a14 - 996 y_a14_proc_1 >= 0
 c348: u_a10 - u_a9 - 657 y_a9_proc_1 >= 0
 c349: u_a9 - u_a10 - 801 y_a10_proc_1 >= -1
 c350: u_a11 - u_a9 - 1013 y_a9_proc_0 >= -2593
 c351: u_a11 - u_a9 - 657 y_a9_proc_1 >= -2593
 c352: u_a9 - u_a11 - 970 y_a11_proc_0 >= 0
 c353: u_a9 - u_a11 - 906 y_a11_proc_1 >= 0
 c354: u_a12 - u_a9 - 1013 y_a9_proc_0 >= -2593
 c355: u_a12 - u_a9 - 657 y_a9_proc_1 >= -2593
 c356: u_a9 - u_a12 - 1266 y_a12_proc_0 >= 0
 c357: u_a9 - u_a12 - 928 y_a12_proc_1 >= 0
 c358: u_a13 - u_a9 - 1013 y_a9_proc_0 >= -2593
 c359: u_a13 - u_a9 - 657 y_a9_proc_1 >= -1
 c360: u_a9 - u_a13 - 1083 y_a13_proc_0 >= -2592
 c361: u_a9 - u_a13 - 736 y_a13_proc_1 >= 0
 c362: u_a14 - u_a9 - 1013 y_a9_proc_0 >= -2593
 c363: u_a14 - u_a9 - 657 y_a9_proc_1 >= -2593
 c364: u_a9 - u_a14 - 817 y_a14_proc_0 >= 0
 c365: u_a9 - u_a14 - 996 y_a14_proc_1 >= 0
 c366: u_a11 - u_a10 - 801 y_a10_proc_1 >= -2594
 c367: u_a10 - u_a11 - 906 y_a11_proc_1 >= 1
 c368: u_a12 - u_a10 - 801 y_a10_proc_1 >= -2594
 c369: u_a10 - u_a12 - 928 y_a12_proc_1 >= 1
 c370: u_a13 - u_a10 - 801 y_a10_proc_1 >= -2
 c371: u_a10 - u_a13 - 736 y_a13_proc_1 >= 1
 c372: u_a14 - u_a10 - 801 y_a10_proc_1 >= -2594
 c373: u_a10 - u_a14 - 996 y_a14_proc_1 >= 1
 c374: u_a12 - u_a11 - 970 y_a11_proc_0 >= -1
 c375: u_a12 - u_a11 - 906 y_a11_proc_1 >= -2593
 c376: u_a11 - u_a12 - 1266 y_a12_proc_0 >= 0
 c377: u_a11 - u_a12 - 928 y_a12_proc_1 >= -2592
 c378: u_a13 - u_a11 - 970 y_a11_proc_0 >= -1
 c379: u_a13 - u_a11 - 906 y_a11_proc_1 >= -1
 c380: u_a11 - u_a13 - 1083 y_a13_proc_0 >= -2592
 c381: u_a11 - u_a13 - 736 y_a13_proc_1 >= -2592
 c382: u_a14 - u_a11 - 970 y_a11_proc_0 >= -1
 c383: u_a14 - u_a11 - 906 y_a11_proc_1 >= -2593
 c384: u_a11 - u_a14 - 817 y_a14_proc_0 >= 0
 c385: u_a11 - u_a14 - 996 y_a14_proc_1 >= -2592
 c386: u_a13 - u_a12 - 1266 y_a12_proc_0 >= -767
 c387: u_a13 - u_a12 - 928 y_a12_proc_1 >= -767
 c388: u_a12 - u_a13 - 1083 y_a13_proc_0 >= -1826
 c389: u_a12 - u_a13 - 736 y_a13_proc_1 >= -1826
 c390: u_a14 - u_a12 - 1266 y_a12_proc_0 >= -1
 c391: u_a14 - u_a12 - 928 y_a12_proc_1 >= -2593
 c392: u_a12 - u_a14 - 817 y_a14_proc_0 >= 0
 c393: u_a12 - u_a14 - 996 y_a14_proc_1 >= -2592
 c394: u_a14 - u_a13 - 1083 y_a13_proc_0 >= -1
 c395: u_a14 - u_a13 - 736 y_a13_proc_1 >= -1
 c396: u_a13 - u_a14 - 817 y_a14_proc_0 >= -2592
 c397: u_a13 - u_a14 - 996 y_a14_proc_1 >= -2592

Bounds
End
